Gurobi Optimizer version 9.1.0 build v9.1.0rc0 (linux64)
Thread count: 8 physical cores, 16 logical processors, using up to 16 threads
Optimize a model with 255286 rows, 240480 columns and 1381170 nonzeros
Model fingerprint: 0xe969738a
Variable types: 0 continuous, 240480 integer (240480 binary)
Coefficient statistics:
  Matrix range     [1e+00, 1e+00]
  Objective range  [1e+01, 1e+05]
  Bounds range     [1e+00, 1e+00]
  RHS range        [1e+00, 1e+03]
Presolve removed 6030 rows and 30 columns (presolve time = 5s) ...
Presolve added 0 rows and 5970 columns
Presolve removed 30 rows and 0 columns
Presolve time: 5.22s
Presolved: 255256 rows, 246450 columns, 1039110 nonzeros
Variable types: 0 continuous, 246450 integer (246450 binary)
Found heuristic solution: objective 666197.00000

Concurrent LP optimizer: primal simplex, dual simplex, and barrier
Showing barrier log only...

Root barrier log...

Ordering time: 0.08s

Barrier statistics:
 Dense cols : 240
 AA' NZ     : 8.111e+05
 Factor NZ  : 3.235e+06 (roughly 230 MBytes of memory)
 Factor Ops : 4.332e+08 (less than 1 second per iteration)
 Threads    : 6

                  Objective                Residual
Iter       Primal          Dual         Primal    Dual     Compl     Time
   0   3.30763507e+08 -4.87478490e+08  3.81e+02 3.11e+01  3.04e+04    11s
   1   1.08485383e+07 -5.14132222e+08  2.63e+01 1.15e+04  1.93e+03    12s
   2   6.56640458e+06 -4.94063543e+08  1.52e+01 9.80e+03  1.32e+03    12s
   3   3.51908396e+06 -1.76526622e+08  7.27e+00 1.68e+03  4.86e+02    13s
   4   7.68025171e+05 -1.23007796e+08  1.05e-01 9.77e+02  1.71e+02    13s
   5   7.30342865e+05 -2.33271265e+06  1.66e-02 1.98e+01  4.16e+00    14s
   6   6.83997069e+05 -5.55035677e+05  6.23e-03 7.58e+00  1.68e+00    15s
   7   6.48589291e+05 -5.37047522e+04  4.34e-03 4.08e+00  9.49e-01    15s
   8   6.21877770e+05  2.56616892e+05  3.16e-03 1.80e+00  4.93e-01    16s
   9   6.06290357e+05  3.01972057e+05  2.67e-03 1.45e+00  4.11e-01    17s
  10   5.89824670e+05  4.02536555e+05  2.17e-03 7.36e-01  2.52e-01    17s
  11   5.78035093e+05  4.33292607e+05  1.85e-03 5.14e-01  1.95e-01    18s
  12   5.69123355e+05  4.57633683e+05  1.62e-03 3.39e-01  1.50e-01    19s
  13   5.58655134e+05  4.73994316e+05  1.36e-03 2.13e-01  1.14e-01    20s
  14   5.47057573e+05  4.86397533e+05  1.08e-03 1.28e-01  8.15e-02    21s
  15   5.34965620e+05  4.90543102e+05  7.90e-04 9.84e-02  5.97e-02    21s
  16   5.30744442e+05  4.94631627e+05  6.91e-04 7.11e-02  4.85e-02    22s
  17   5.25700762e+05  4.97307101e+05  5.60e-04 5.64e-02  3.81e-02    23s
  18   5.21823562e+05  4.99142109e+05  4.61e-04 4.25e-02  3.05e-02    24s
  19   5.19226133e+05  5.00160939e+05  3.92e-04 3.50e-02  2.56e-02    25s
  20   5.15960055e+05  5.01196260e+05  3.04e-04 2.68e-02  1.98e-02    25s
  21   5.14177449e+05  5.02085526e+05  2.54e-04 2.07e-02  1.62e-02    26s
  22   5.12452009e+05  5.02783049e+05  2.05e-04 1.67e-02  1.30e-02    27s
  23   5.10625073e+05  5.03193836e+05  1.58e-04 1.38e-02  9.98e-03    27s
  24   5.09539707e+05  5.03485765e+05  1.27e-04 1.18e-02  8.13e-03    28s
  25   5.08888089e+05  5.03665643e+05  1.09e-04 1.04e-02  7.01e-03    29s
  26   5.08159845e+05  5.03883766e+05  8.76e-05 8.81e-03  5.74e-03    29s
  27   5.07826221e+05  5.04278276e+05  7.86e-05 6.30e-03  4.76e-03    30s
  28   5.07628934e+05  5.04434461e+05  7.27e-05 5.16e-03  4.29e-03    31s
  29   5.07157211e+05  5.04524146e+05  5.87e-05 4.37e-03  3.53e-03    31s
  30   5.06845676e+05  5.04596794e+05  4.94e-05 3.88e-03  3.02e-03    32s
  31   5.06731398e+05  5.04638614e+05  4.63e-05 3.63e-03  2.81e-03    33s
  32   5.06490687e+05  5.04734344e+05  3.89e-05 3.02e-03  2.36e-03    33s
  33   5.06348706e+05  5.04854847e+05  3.47e-05 2.35e-03  2.00e-03    34s
  34   5.06184408e+05  5.04920536e+05  3.00e-05 1.94e-03  1.70e-03    34s
  35   5.06103323e+05  5.04935218e+05  2.75e-05 1.84e-03  1.57e-03    35s
  36   5.05937158e+05  5.05002135e+05  2.24e-05 1.41e-03  1.25e-03    35s
  37   5.05879891e+05  5.05048596e+05  2.06e-05 1.12e-03  1.11e-03    36s
  38   5.05800910e+05  5.05068366e+05  1.82e-05 9.89e-04  9.82e-04    37s
  39   5.05691655e+05  5.05090615e+05  1.50e-05 8.02e-04  8.06e-04    37s
  40   5.05610325e+05  5.05120309e+05  1.25e-05 6.48e-04  6.57e-04    38s
  41   5.05563807e+05  5.05136673e+05  1.11e-05 5.60e-04  5.73e-04    38s
  42   5.05525192e+05  5.05141571e+05  9.89e-06 5.25e-04  5.14e-04    39s
  43   5.05508278e+05  5.05145635e+05  9.33e-06 5.01e-04  4.86e-04    39s
  44   5.05475188e+05  5.05158727e+05  8.30e-06 4.29e-04  4.24e-04    40s
  45   5.05458898e+05  5.05161017e+05  7.75e-06 4.15e-04  3.99e-04    41s
  46   5.05414430e+05  5.05170101e+05  6.24e-06 3.67e-04  3.28e-04    41s
  47   5.05392101e+05  5.05186212e+05  5.47e-06 2.72e-04  2.76e-04    42s
  48   5.05360781e+05  5.05191125e+05  4.43e-06 2.40e-04  2.27e-04    42s
  49   5.05344416e+05  5.05203286e+05  3.94e-06 1.73e-04  1.89e-04    43s
  50   5.05334843e+05  5.05208508e+05  3.62e-06 1.45e-04  1.69e-04    44s
  51   5.05320001e+05  5.05213717e+05  3.09e-06 1.14e-04  1.42e-04    44s
  52   5.05312176e+05  5.05215526e+05  2.82e-06 1.03e-04  1.29e-04    45s
  53   5.05298540e+05  5.05217953e+05  2.38e-06 8.61e-05  1.08e-04    46s
  54   5.05291341e+05  5.05219709e+05  2.12e-06 7.48e-05  9.59e-05    46s
  55   5.05278147e+05  5.05221392e+05  1.64e-06 6.46e-05  7.60e-05    47s
  56   5.05272231e+05  5.05224707e+05  1.43e-06 4.62e-05  6.36e-05    48s
  57   5.05266899e+05  5.05225751e+05  1.24e-06 4.00e-05  5.51e-05    48s
  58   5.05263010e+05  5.05227915e+05  1.11e-06 2.77e-05  4.70e-05    49s
  59   5.05258069e+05  5.05228558e+05  9.33e-07 2.38e-05  3.95e-05    50s
  60   5.05253310e+05  5.05229574e+05  7.64e-07 1.80e-05  3.18e-05    50s
  61   5.05249258e+05  5.05230260e+05  6.10e-07 1.40e-05  2.54e-05    51s
  62   5.05246100e+05  5.05231079e+05  4.97e-07 9.53e-06  2.01e-05    52s
  63   5.05242245e+05  5.05231502e+05  3.53e-07 7.24e-06  1.44e-05    52s
  64   5.05241753e+05  5.05231699e+05  3.34e-07 6.31e-06  1.35e-05    53s
  65   5.05240604e+05  5.05231855e+05  2.94e-07 5.57e-06  1.17e-05    54s
  66   5.05238383e+05  5.05232102e+05  2.07e-07 4.26e-06  8.40e-06    54s
  67   5.05237003e+05  5.05232487e+05  1.52e-07 2.47e-06  6.04e-06    55s
  68   5.05236591e+05  5.05232604e+05  1.37e-07 1.94e-06  5.33e-06    55s
  69   5.05235722e+05  5.05232716e+05  1.03e-07 1.35e-06  4.02e-06    56s
  70   5.05234619e+05  5.05232805e+05  6.05e-08 9.50e-07  2.43e-06    57s
  71   5.05233903e+05  5.05232846e+05  3.55e-08 7.07e-07  1.41e-06    58s
  72   5.05233574e+05  5.05232974e+05  2.20e-08 1.96e-07  8.02e-07    58s
  73   5.05233480e+05  5.05232977e+05  1.85e-08 1.83e-07  6.73e-07    59s
  74   5.05233193e+05  5.05232991e+05  6.63e-09 2.24e-07  2.70e-07    59s
  75   5.05233045e+05  5.05233012e+05  7.59e-10 1.09e-07  4.38e-08    60s
  76   5.05233035e+05  5.05233020e+05  3.84e-10 1.20e-06  1.98e-08    60s
  77   5.05233035e+05  5.05233020e+05  4.74e-09 1.20e-06  1.97e-08    61s
  78   5.05233034e+05  5.05233020e+05  1.13e-08 1.15e-06  1.95e-08    61s
  79   5.05233034e+05  5.05233020e+05  1.05e-08 1.11e-06  1.83e-08    62s

Barrier solved model in 79 iterations and 61.90 seconds
Optimal objective 5.05233034e+05


Root crossover log...

   92291 DPushes remaining with DInf 1.3682714e-02                64s
     758 DPushes remaining with DInf 7.0447789e-03                65s
       0 DPushes remaining with DInf 0.0000000e+00                66s

    1789 PPushes remaining with PInf 2.3624829e-05                66s
       0 PPushes remaining with PInf 1.3711121e-04                66s

  Push phase complete: Pinf 1.3711121e-04, Dinf 2.1333668e-02     66s


Root simplex log...

Iteration    Objective       Primal Inf.    Dual Inf.      Time
   21231    5.0523302e+05   0.000000e+00   2.133367e-02     66s
   21237    5.0523302e+05   0.000000e+00   0.000000e+00     67s
   21237    5.0523302e+05   0.000000e+00   0.000000e+00     67s

Solved with barrier

Root relaxation: objective 5.052330e+05, 21237 iterations, 57.75 seconds
Total elapsed time = 70.04s

    Nodes    |    Current Node    |     Objective Bounds      |     Work
 Expl Unexpl |  Obj  Depth IntInf | Incumbent    BestBd   Gap | It/Node Time

     0     0 505233.024    0 31476 666197.000 505233.024  24.2%     -   71s
H    0     0                    540112.00000 505233.024  6.46%     -   75s
H    0     0                    539919.00000 505233.024  6.42%     -   78s
H    0     0                    539166.00000 505233.024  6.29%     -   84s
     0     0 505235.382    0 31483 539166.000 505235.382  6.29%     -  107s
H    0     0                    539103.00000 505235.382  6.28%     -  120s
     0     0 505235.566    0 31483 539103.000 505235.566  6.28%     -  126s
     0     0 505235.606    0 31487 539103.000 505235.606  6.28%     -  131s
     0     0 505236.445    0 31484 539103.000 505236.445  6.28%     -  149s
H    0     0                    538790.00000 505236.445  6.23%     -  156s
     0     0 505237.478    0 31475 538790.000 505237.478  6.23%     -  160s
     0     0 505237.720    0 31470 538790.000 505237.720  6.23%     -  166s
     0     0 505237.910    0 31469 538790.000 505237.910  6.23%     -  172s
     0     0 505237.934    0 31465 538790.000 505237.934  6.23%     -  174s
     0     0 505237.934    0 31465 538790.000 505237.934  6.23%     -  208s

Cutting planes:
  Gomory: 6

Explored 1 nodes (28674 simplex iterations) in 300.04 seconds
Thread count was 16 (of 16 available processors)

Solution count 6: 538790 539103 539166 ... 666197

Time limit reached
Best objective 5.387900000000e+05, best bound 5.052380556444e+05, gap 6.2273%

User-callback calls 28986, time in user-callback 0.48 sec
['/opt/local/stow/gurobi910/linux64/lib/libgurobi91.so']
Result: runtime=209.02sec; objective=538790; gap=0.0623%
Solution written to /autofs/unityaccount/cremi/mdeboute/Bureau/multi-period-flp/solution//instSingle_I30_J1000_T8_0_result.txt
